proyfinal/src/viki/013/andrea/andrea-localstore/experimentInOfficeAgust.take6/worker_4/127af125-524c-4f7e-8595-f5155b24a3ca.als.cnf.out
Reading from standard input... Use '--help' for help.
============================[ Problem Statistics ]=============================
|                                                                             |
|  Number of variables:         87638                                         |
|  Number of clauses:          161767                                         |
|  Parse time:                   0.03 s                                       |
|                                                                             |
============================[ Search Statistics ]==============================
| Conflicts |          ORIGINAL         |          LEARNT          | Progress |
|           |    Vars  Clauses Literals |    Limit  Clauses Lit/Cl |          |
===============================================================================
|       100 |   64021   111018   277392 |    40706      100     29 | 26.948 % |
|       250 |   64021   111018   277392 |    44777      250     25 | 26.948 % |
|       475 |   64021   111018   277392 |    49254      475     36 | 26.948 % |
|       812 |   64021   111018   277392 |    54180      812     48 | 26.948 % |
|      1318 |   64021   111018   277392 |    59598     1318     67 | 26.948 % |
|      2077 |   54877    83557   209603 |    65558     1939     77 | 37.382 % |
|      3216 |   54877    83557   209603 |    72114     3078     79 | 37.382 % |
|      4924 |   53302    78228   195853 |    79325     4352     83 | 39.179 % |
|      7486 |   52506    77797   194811 |    87258     6876     76 | 40.088 % |
|     11330 |   52418    74778   187544 |    95984    10551     67 | 40.188 % |
|     17096 |   51797    72117   181300 |   105582    14519     62 | 40.897 % |
===============================================================================
restarts              : 63
conflicts             : 19151          (8857 /sec)
decisions             : 62685          (0.00 % random) (28990 /sec)
propagations          : 22051959       (10198235 /sec)
conflict literals     : 1149906        (41.68 % deleted)
Memory used           : 36.70 MB
CPU time              : 2.16233 s

UNSATISFIABLE
